p cnf 366 78
-2 3 -1 0
-2 4 -1 0
-2 5 -1 0
-2 10 -1 0
-2 -12 -1 0
-2 -13 -1 0
-2 -14 -1 0
-2 -15 -1 0
-2 19 -1 0
-21 2 -1 0
-35 36 -34 0
-35 37 -34 0
-35 38 -34 0
-35 39 -34 0
-35 -41 -34 0
-35 -42 -34 0
-35 -43 -34 0
-46 35 -34 0
-65 66 -58 0
-65 67 -58 0
-65 68 -58 0
-65 69 -58 0
-65 -71 -58 0
-65 -72 -58 0
-65 -73 -58 0
-76 65 -58 0
-98 99 -92 0
-98 100 -92 0
-98 101 -92 0
-98 102 -92 0
-98 -104 -92 0
-98 -105 -92 0
-98 -106 -92 0
-109 98 -92 0
-130 131 -124 0
-130 132 -124 0
-130 133 -124 0
-130 134 -124 0
-130 -136 -124 0
-130 -137 -124 0
-130 -138 -124 0
-141 130 -124 0
-161 162 -155 0
-161 163 -155 0
-161 164 -155 0
-161 165 -155 0
-161 -167 -155 0
-161 -168 -155 0
-161 -169 -155 0
-161 171 -155 0
-172 161 -155 0
-187 188 185 -174 0
-190 187 -174 0
-190 191 -174 0
-190 192 -174 0
-190 193 -174 0
-190 194 -174 0
-190 -196 -174 0
-190 -197 -174 0
-190 -198 -174 0
-190 -199 -174 0
-201 190 -174 0
7 -269 0
8 -269 0
9 -269 0
-269 -360 0
-16 -269 0
18 -269 0
-269 361 0
21 -268 0
201 -268 0
172 -268 0
141 -268 0
109 -268 0
76 -268 0
46 -268 0
-185 -268 0
199 -188 -268 360 -361 -171 -194 -193 198 -192 197 -191 196 -134 -162 -163 -164 -165 167 168 169 -102 -131 -132 -133 136 137 138 -69 -99 -100 -101 104 105 106 -3 -4 -5 -7 -8 -9 -10 12 13 14 15 16 -18 -19 -36 -37 -38 -39 41 42 43 -66 -67 -68 71 72 73 0
